(set-option :produce-models true)
(declare-const input_size0 Int)
(declare-const input_size1 Int)
(declare-const input_size2 Int)
(declare-const input_size3 Int)
(declare-const input_stride0 Int)
(declare-const input_stride1 Int)
(declare-const input_stride2 Int)
(declare-const input_stride3 Int)
(declare-const input_storage_offset Int)
(define-fun ge () Bool (>= input_size0 0))
(assert ge)
(define-fun ge_1 () Bool (>= input_size1 0))
(assert ge_1)
(define-fun ge_2 () Bool (>= input_size2 0))
(assert ge_2)
(define-fun ge_3 () Bool (>= input_size3 0))
(assert ge_3)
(define-fun eq () Bool (= input_size0 0))
(define-fun not_ () Bool (not eq))
(assert not_)
(define-fun sub () Int (- input_size0 1))
(define-fun mul () Int (* input_stride0 sub))
(define-fun add () Int (+ 1 mul))
(define-fun eq_1 () Bool (= input_size1 0))
(define-fun not__1 () Bool (not eq_1))
(assert not__1)
(define-fun sub_1 () Int (- input_size1 1))
(define-fun mul_1 () Int (* input_stride1 sub_1))
(define-fun add_1 () Int (+ add mul_1))
(define-fun eq_2 () Bool (= input_size2 0))
(define-fun not__2 () Bool (not eq_2))
(assert not__2)
(define-fun sub_2 () Int (- input_size2 1))
(define-fun mul_2 () Int (* input_stride2 sub_2))
(define-fun add_2 () Int (+ add_1 mul_2))
(define-fun eq_3 () Bool (= input_size3 0))
(define-fun not__3 () Bool (not eq_3))
(assert not__3)
(define-fun sub_3 () Int (- input_size3 1))
(define-fun mul_3 () Int (* input_stride3 sub_3))
(define-fun add_3 () Int (+ add_2 mul_3))
(define-fun mul_4 () Int (* 4 add_3))
(define-fun mul_5 () Int (* input_size0 input_size1))
(define-fun mul_6 () Int (* mul_5 input_size2))
(define-fun mul_7 () Int (* mul_6 input_size3))
(define-fun eq_4 () Bool (= mul_7 0))
(define-fun not__4 () Bool (not eq_4))
(assert not__4)
(define-fun eq_5 () Bool (= input_size3 1))
(define-fun not__5 () Bool (not eq_5))
(assert not__5)
(define-fun eq_6 () Bool (= input_stride3 1))
(assert eq_6)
(define-fun eq_7 () Bool (= input_size2 1))
(define-fun not__6 () Bool (not eq_7))
(assert not__6)
(define-fun eq_8 () Bool (= input_stride2 input_size3))
(assert eq_8)
(define-fun mul_8 () Int (* input_size3 input_size2))
(define-fun eq_9 () Bool (= input_size1 1))
(define-fun not__7 () Bool (not eq_9))
(assert not__7)
(define-fun eq_10 () Bool (= input_stride1 mul_8))
(assert eq_10)
(define-fun mul_9 () Int (* mul_8 input_size1))
(define-fun eq_11 () Bool (= input_size0 1))
(define-fun not__8 () Bool (not eq_11))
(assert not__8)
(define-fun eq_12 () Bool (= input_stride0 mul_9))
(assert eq_12)
(define-fun mul_10 () Int (* mul_9 input_size0))
(define-fun eq_13 () Bool (= input_stride1 1))
(define-fun not__9 () Bool (not eq_13))
(assert not__9)
(define-fun eq_14 () Bool (= input_stride1 0))
(define-fun not__10 () Bool (not eq_14))
(assert not__10)
(define-fun lt () Bool (< input_stride1 0))
(define-fun not__11 () Bool (not lt))
(assert not__11)
(define-fun gt () Bool (> input_size1 1))
(assert gt)
(define-fun mul_11 () Int (* input_stride1 input_size1))
(define-fun lt_1 () Bool (< input_stride3 mul_11))
(assert lt_1)
(define-fun ge_4 () Bool (>= input_storage_offset 0))
(assert ge_4)
(define-fun add_4 () Int (+ input_storage_offset add_3))
(define-fun mul_12 () Int (* 4 add_4))
(define-fun eq_15 () Bool (= input_size1 3))
(assert eq_15)
(define-fun add_5 () Int (+ input_size2 2))
(define-fun lt_2 () Bool (< add_5 4))
(define-fun not__12 () Bool (not lt_2))
(assert not__12)
(define-fun add_6 () Int (+ input_size3 2))
(define-fun lt_3 () Bool (< add_6 4))
(define-fun not__13 () Bool (not lt_3))
(assert not__13)
(define-fun floordiv () Int (div mul_7 input_size0))
(define-fun gt_1 () Bool (> floordiv 2147483647))
(define-fun not__14 () Bool (not gt_1))
(assert not__14)
(define-fun sub_4 () Int (- add_5 4))
(define-fun floordiv_1 () Int (div sub_4 2))
(define-fun add_7 () Int (+ floordiv_1 1))
(define-fun sub_5 () Int (- add_6 4))
(define-fun floordiv_2 () Int (div sub_5 2))
(define-fun add_8 () Int (+ floordiv_2 1))
(define-fun mul_13 () Int (* 64 add_7))
(define-fun mul_14 () Int (* mul_13 add_8))
(define-fun gt_2 () Bool (> mul_14 2147483647))
(define-fun not__15 () Bool (not gt_2))
(assert not__15)
(define-fun sub_6 () Int (- add_5 3))
(define-fun sub_7 () Int (- sub_6 1))
(define-fun floordiv_3 () Int (div sub_7 2))
(define-fun add_9 () Int (+ floordiv_3 1))
(define-fun sub_8 () Int (- add_6 3))
(define-fun sub_9 () Int (- sub_8 1))
(define-fun floordiv_4 () Int (div sub_9 2))
(define-fun add_10 () Int (+ floordiv_4 1))
(define-fun ge_5 () Bool (>= add_9 0))
(assert ge_5)
(define-fun ge_6 () Bool (>= add_10 0))
(assert ge_6)
(define-fun eq_16 () Bool (= add_10 0))
(define-fun not__16 () Bool (not eq_16))
(assert not__16)
(define-fun eq_17 () Bool (= add_9 0))
(define-fun not__17 () Bool (not eq_17))
(assert not__17)
(define-fun mul_15 () Int (* add_10 add_9))
(define-fun mul_16 () Int (* mul_15 64))
(define-fun mul_17 () Int (* mul_16 input_size0))
(define-fun mul_18 () Int (* mul_16 sub))
(define-fun add_11 () Int (+ 1 mul_18))
(define-fun mul_19 () Int (* mul_15 63))
(define-fun add_12 () Int (+ add_11 mul_19))
(define-fun sub_10 () Int (- add_9 1))
(define-fun mul_20 () Int (* add_10 sub_10))
(define-fun add_13 () Int (+ add_12 mul_20))
(define-fun sub_11 () Int (- add_10 1))
(define-fun add_14 () Int (+ add_13 sub_11))
(define-fun mul_21 () Int (* 4 add_14))
(define-fun mul_22 () Int (* input_size0 64))
(define-fun mul_23 () Int (* mul_22 add_9))
(define-fun mul_24 () Int (* mul_23 add_10))
(define-fun eq_18 () Bool (= mul_24 0))
(define-fun not__18 () Bool (not eq_18))
(assert not__18)
(define-fun eq_19 () Bool (= add_10 1))
(define-fun not__19 () Bool (not eq_19))
(assert not__19)
(define-fun eq_20 () Bool (= add_9 1))
(define-fun not__20 () Bool (not eq_20))
(assert not__20)
(define-fun eq_21 () Bool (= add_10 add_10))
(assert eq_21)
(define-fun eq_22 () Bool (= mul_15 mul_15))
(assert eq_22)
(define-fun eq_23 () Bool (= mul_16 mul_16))
(assert eq_23)
(define-fun eq_24 () Bool (= mul_15 1))
(define-fun not__21 () Bool (not eq_24))
(assert not__21)
(define-fun eq_25 () Bool (= mul_15 0))
(define-fun not__22 () Bool (not eq_25))
(assert not__22)
(define-fun lt_4 () Bool (< mul_15 0))
(define-fun not__23 () Bool (not lt_4))
(assert not__23)
(define-fun lt_5 () Bool (< 1 mul_16))
(assert lt_5)
(define-fun gt_3 () Bool (> input_stride1 1))
(assert gt_3)
(define-fun lt_6 () Bool (< add_10 0))
(define-fun not__24 () Bool (not lt_6))
(assert not__24)
(define-fun lt_7 () Bool (< add_9 0))
(define-fun not__25 () Bool (not lt_7))
(assert not__25)
(define-fun lt_8 () Bool (< input_size0 0))
(define-fun not__26 () Bool (not lt_8))
(assert not__26)
(define-fun eq_26 () Bool (= input_size0 input_size0))
(assert eq_26)
(define-fun eq_27 () Bool (= add_9 add_9))
(assert eq_27)
(define-fun gt_4 () Bool (> add_10 1))
(assert gt_4)
(define-fun lt_9 () Bool (< add_10 mul_15))
(assert lt_9)
(define-fun eq_28 () Bool (= mul_16 0))
(define-fun not__27 () Bool (not eq_28))
(assert not__27)
(define-fun lt_10 () Bool (< mul_15 mul_16))
(assert lt_10)
(define-fun eq_29 () Bool (= input_size0 -1))
(define-fun not__28 () Bool (not eq_29))
(assert not__28)
(define-fun eq_30 () Bool (= add_9 -1))
(define-fun not__29 () Bool (not eq_30))
(assert not__29)
(define-fun eq_31 () Bool (= add_10 -1))
(define-fun not__30 () Bool (not eq_31))
(assert not__30)
(define-fun eq_32 () Bool (= mul_24 mul_24))
(assert eq_32)
(define-fun add_15 () Int (+ add_9 2))
(define-fun lt_11 () Bool (< add_15 4))
(define-fun not__31 () Bool (not lt_11))
(assert not__31)
(define-fun add_16 () Int (+ add_10 2))
(define-fun lt_12 () Bool (< add_16 4))
(define-fun not__32 () Bool (not lt_12))
(assert not__32)
(define-fun floordiv_5 () Int (div mul_24 input_size0))
(define-fun gt_5 () Bool (> floordiv_5 2147483647))
(define-fun not__33 () Bool (not gt_5))
(assert not__33)
(define-fun sub_12 () Int (- add_15 4))
(define-fun floordiv_6 () Int (div sub_12 2))
(define-fun add_17 () Int (+ floordiv_6 1))
(define-fun sub_13 () Int (- add_16 4))
(define-fun floordiv_7 () Int (div sub_13 2))
(define-fun add_18 () Int (+ floordiv_7 1))
(define-fun mul_25 () Int (* 128 add_17))
(define-fun mul_26 () Int (* mul_25 add_18))
(define-fun gt_6 () Bool (> mul_26 2147483647))
(define-fun not__34 () Bool (not gt_6))
(assert not__34)
(define-fun sub_14 () Int (- add_15 3))
(define-fun sub_15 () Int (- sub_14 1))
(define-fun floordiv_8 () Int (div sub_15 2))
(define-fun add_19 () Int (+ floordiv_8 1))
(define-fun sub_16 () Int (- add_16 3))
(define-fun sub_17 () Int (- sub_16 1))
(define-fun floordiv_9 () Int (div sub_17 2))
(define-fun add_20 () Int (+ floordiv_9 1))
(define-fun ge_7 () Bool (>= add_19 0))
(assert ge_7)
(define-fun ge_8 () Bool (>= add_20 0))
(assert ge_8)
(define-fun eq_33 () Bool (= add_20 0))
(define-fun not__35 () Bool (not eq_33))
(assert not__35)
(define-fun eq_34 () Bool (= add_19 0))
(define-fun not__36 () Bool (not eq_34))
(assert not__36)
(define-fun mul_27 () Int (* add_20 add_19))
(define-fun mul_28 () Int (* mul_27 128))
(define-fun mul_29 () Int (* mul_28 input_size0))
(define-fun mul_30 () Int (* mul_28 sub))
(define-fun add_21 () Int (+ 1 mul_30))
(define-fun mul_31 () Int (* mul_27 127))
(define-fun add_22 () Int (+ add_21 mul_31))
(define-fun sub_18 () Int (- add_19 1))
(define-fun mul_32 () Int (* add_20 sub_18))
(define-fun add_23 () Int (+ add_22 mul_32))
(define-fun sub_19 () Int (- add_20 1))
(define-fun add_24 () Int (+ add_23 sub_19))
(define-fun mul_33 () Int (* 4 add_24))
(define-fun mul_34 () Int (* input_size0 128))
(define-fun mul_35 () Int (* mul_34 add_19))
(define-fun mul_36 () Int (* mul_35 add_20))
(define-fun eq_35 () Bool (= mul_36 0))
(define-fun not__37 () Bool (not eq_35))
(assert not__37)
(define-fun eq_36 () Bool (= add_20 1))
(define-fun not__38 () Bool (not eq_36))
(assert not__38)
(define-fun eq_37 () Bool (= add_19 1))
(define-fun not__39 () Bool (not eq_37))
(assert not__39)
(define-fun eq_38 () Bool (= add_20 add_20))
(assert eq_38)
(define-fun eq_39 () Bool (= mul_27 mul_27))
(assert eq_39)
(define-fun eq_40 () Bool (= mul_28 mul_28))
(assert eq_40)
(define-fun eq_41 () Bool (= mul_27 1))
(define-fun not__40 () Bool (not eq_41))
(assert not__40)
(define-fun eq_42 () Bool (= mul_27 0))
(define-fun not__41 () Bool (not eq_42))
(assert not__41)
(define-fun lt_13 () Bool (< mul_27 0))
(define-fun not__42 () Bool (not lt_13))
(assert not__42)
(define-fun lt_14 () Bool (< 1 mul_28))
(assert lt_14)
(define-fun gt_7 () Bool (> mul_15 1))
(assert gt_7)
(define-fun gt_8 () Bool (> mul_16 1))
(assert gt_8)
(define-fun le () Bool (<= input_size0 880801))
(assert le)
(define-fun le_1 () Bool (<= input_size0 65535))
(assert le_1)
(define-fun lt_15 () Bool (< mul_36 2147483647))
(assert lt_15)
(define-fun lt_16 () Bool (< add_20 0))
(define-fun not__43 () Bool (not lt_16))
(assert not__43)
(define-fun lt_17 () Bool (< add_19 0))
(define-fun not__44 () Bool (not lt_17))
(assert not__44)
(define-fun eq_43 () Bool (= add_19 add_19))
(assert eq_43)
(define-fun eq_44 () Bool (= add_19 -1))
(define-fun not__45 () Bool (not eq_44))
(assert not__45)
(define-fun eq_45 () Bool (= add_20 -1))
(define-fun not__46 () Bool (not eq_45))
(assert not__46)
(define-fun lt_18 () Bool (< input_size0 2))
(define-fun not__47 () Bool (not lt_18))
(assert not__47)
(define-fun lt_19 () Bool (< add_19 2))
(define-fun not__48 () Bool (not lt_19))
(assert not__48)
(define-fun lt_20 () Bool (< add_20 2))
(define-fun not__49 () Bool (not lt_20))
(assert not__49)
(define-fun gt_9 () Bool (> add_20 1))
(assert gt_9)
(define-fun lt_21 () Bool (< add_20 mul_27))
(assert lt_21)
(define-fun eq_46 () Bool (= mul_28 0))
(define-fun not__50 () Bool (not eq_46))
(assert not__50)
(define-fun lt_22 () Bool (< mul_27 mul_28))
(assert lt_22)
(define-fun eq_47 () Bool (= mul_36 mul_36))
(assert eq_47)
(define-fun add_25 () Int (+ add_19 2))
(define-fun lt_23 () Bool (< add_25 4))
(define-fun not__51 () Bool (not lt_23))
(assert not__51)
(define-fun add_26 () Int (+ add_20 2))
(define-fun lt_24 () Bool (< add_26 4))
(define-fun not__52 () Bool (not lt_24))
(assert not__52)
(define-fun floordiv_10 () Int (div mul_36 input_size0))
(define-fun gt_10 () Bool (> floordiv_10 2147483647))
(define-fun not__53 () Bool (not gt_10))
(assert not__53)
(define-fun sub_20 () Int (- add_25 4))
(define-fun floordiv_11 () Int (div sub_20 2))
(define-fun add_27 () Int (+ floordiv_11 1))
(define-fun sub_21 () Int (- add_26 4))
(define-fun floordiv_12 () Int (div sub_21 2))
(define-fun add_28 () Int (+ floordiv_12 1))
(define-fun mul_37 () Int (* 256 add_27))
(define-fun mul_38 () Int (* mul_37 add_28))
(define-fun gt_11 () Bool (> mul_38 2147483647))
(define-fun not__54 () Bool (not gt_11))
(assert not__54)
(define-fun sub_22 () Int (- add_25 3))
(define-fun sub_23 () Int (- sub_22 1))
(define-fun floordiv_13 () Int (div sub_23 2))
(define-fun add_29 () Int (+ floordiv_13 1))
(define-fun sub_24 () Int (- add_26 3))
(define-fun sub_25 () Int (- sub_24 1))
(define-fun floordiv_14 () Int (div sub_25 2))
(define-fun add_30 () Int (+ floordiv_14 1))
(define-fun ge_9 () Bool (>= add_29 0))
(assert ge_9)
(define-fun ge_10 () Bool (>= add_30 0))
(assert ge_10)
(define-fun eq_48 () Bool (= add_30 0))
(define-fun not__55 () Bool (not eq_48))
(assert not__55)
(define-fun eq_49 () Bool (= add_29 0))
(define-fun not__56 () Bool (not eq_49))
(assert not__56)
(define-fun mul_39 () Int (* add_30 add_29))
(define-fun mul_40 () Int (* mul_39 256))
(define-fun mul_41 () Int (* mul_40 input_size0))
(define-fun mul_42 () Int (* mul_40 sub))
(define-fun add_31 () Int (+ 1 mul_42))
(define-fun mul_43 () Int (* mul_39 255))
(define-fun add_32 () Int (+ add_31 mul_43))
(define-fun sub_26 () Int (- add_29 1))
(define-fun mul_44 () Int (* add_30 sub_26))
(define-fun add_33 () Int (+ add_32 mul_44))
(define-fun sub_27 () Int (- add_30 1))
(define-fun add_34 () Int (+ add_33 sub_27))
(define-fun mul_45 () Int (* 4 add_34))
(define-fun mul_46 () Int (* input_size0 256))
(define-fun mul_47 () Int (* mul_46 add_29))
(define-fun mul_48 () Int (* mul_47 add_30))
(define-fun eq_50 () Bool (= mul_48 0))
(define-fun not__57 () Bool (not eq_50))
(assert not__57)
(define-fun eq_51 () Bool (= add_30 1))
(define-fun not__58 () Bool (not eq_51))
(assert not__58)
(define-fun eq_52 () Bool (= add_29 1))
(define-fun not__59 () Bool (not eq_52))
(assert not__59)
(define-fun eq_53 () Bool (= add_30 add_30))
(assert eq_53)
(define-fun eq_54 () Bool (= mul_39 mul_39))
(assert eq_54)
(define-fun eq_55 () Bool (= mul_40 mul_40))
(assert eq_55)
(define-fun eq_56 () Bool (= mul_39 1))
(define-fun not__60 () Bool (not eq_56))
(assert not__60)
(define-fun eq_57 () Bool (= mul_39 0))
(define-fun not__61 () Bool (not eq_57))
(assert not__61)
(define-fun lt_25 () Bool (< mul_39 0))
(define-fun not__62 () Bool (not lt_25))
(assert not__62)
(define-fun lt_26 () Bool (< 1 mul_40))
(assert lt_26)
(define-fun gt_12 () Bool (> mul_27 1))
(assert gt_12)
(define-fun gt_13 () Bool (> mul_28 1))
(assert gt_13)
(define-fun lt_27 () Bool (< mul_48 2147483647))
(assert lt_27)
(define-fun lt_28 () Bool (< add_30 0))
(define-fun not__63 () Bool (not lt_28))
(assert not__63)
(define-fun lt_29 () Bool (< add_29 0))
(define-fun not__64 () Bool (not lt_29))
(assert not__64)
(define-fun eq_58 () Bool (= add_29 add_29))
(assert eq_58)
(define-fun eq_59 () Bool (= add_29 -1))
(define-fun not__65 () Bool (not eq_59))
(assert not__65)
(define-fun eq_60 () Bool (= add_30 -1))
(define-fun not__66 () Bool (not eq_60))
(assert not__66)
(define-fun lt_30 () Bool (< add_29 2))
(define-fun not__67 () Bool (not lt_30))
(assert not__67)
(define-fun lt_31 () Bool (< add_30 2))
(define-fun not__68 () Bool (not lt_31))
(assert not__68)
(define-fun gt_14 () Bool (> add_30 1))
(assert gt_14)
(define-fun lt_32 () Bool (< add_30 mul_39))
(assert lt_32)
(define-fun eq_61 () Bool (= mul_40 0))
(define-fun not__69 () Bool (not eq_61))
(assert not__69)
(define-fun lt_33 () Bool (< mul_39 mul_40))
(assert lt_33)
(define-fun eq_62 () Bool (= mul_48 mul_48))
(assert eq_62)
(define-fun add_35 () Int (+ add_29 2))
(define-fun lt_34 () Bool (< add_35 4))
(define-fun not__70 () Bool (not lt_34))
(assert not__70)
(define-fun add_36 () Int (+ add_30 2))
(define-fun lt_35 () Bool (< add_36 4))
(define-fun not__71 () Bool (not lt_35))
(assert not__71)
(define-fun floordiv_15 () Int (div mul_48 input_size0))
(define-fun gt_15 () Bool (> floordiv_15 2147483647))
(define-fun not__72 () Bool (not gt_15))
(assert not__72)
(define-fun sub_28 () Int (- add_35 4))
(define-fun floordiv_16 () Int (div sub_28 2))
(define-fun add_37 () Int (+ floordiv_16 1))
(define-fun sub_29 () Int (- add_36 4))
(define-fun floordiv_17 () Int (div sub_29 2))
(define-fun add_38 () Int (+ floordiv_17 1))
(define-fun mul_49 () Int (* 512 add_37))
(define-fun mul_50 () Int (* mul_49 add_38))
(define-fun gt_16 () Bool (> mul_50 2147483647))
(define-fun not__73 () Bool (not gt_16))
(assert not__73)
(define-fun sub_30 () Int (- add_35 3))
(define-fun sub_31 () Int (- sub_30 1))
(define-fun floordiv_18 () Int (div sub_31 2))
(define-fun add_39 () Int (+ floordiv_18 1))
(define-fun sub_32 () Int (- add_36 3))
(define-fun sub_33 () Int (- sub_32 1))
(define-fun floordiv_19 () Int (div sub_33 2))
(define-fun add_40 () Int (+ floordiv_19 1))
(define-fun ge_11 () Bool (>= add_39 0))
(assert ge_11)
(define-fun ge_12 () Bool (>= add_40 0))
(assert ge_12)
(define-fun eq_63 () Bool (= add_40 0))
(define-fun not__74 () Bool (not eq_63))
(assert not__74)
(define-fun eq_64 () Bool (= add_39 0))
(define-fun not__75 () Bool (not eq_64))
(assert not__75)
(define-fun mul_51 () Int (* add_40 add_39))
(define-fun mul_52 () Int (* mul_51 512))
(define-fun mul_53 () Int (* mul_52 input_size0))
(define-fun mul_54 () Int (* mul_52 sub))
(define-fun add_41 () Int (+ 1 mul_54))
(define-fun mul_55 () Int (* mul_51 511))
(define-fun add_42 () Int (+ add_41 mul_55))
(define-fun sub_34 () Int (- add_39 1))
(define-fun mul_56 () Int (* add_40 sub_34))
(define-fun add_43 () Int (+ add_42 mul_56))
(define-fun sub_35 () Int (- add_40 1))
(define-fun add_44 () Int (+ add_43 sub_35))
(define-fun mul_57 () Int (* 4 add_44))
(define-fun mul_58 () Int (* input_size0 512))
(define-fun mul_59 () Int (* mul_58 add_39))
(define-fun mul_60 () Int (* mul_59 add_40))
(define-fun eq_65 () Bool (= mul_60 0))
(define-fun not__76 () Bool (not eq_65))
(assert not__76)
(define-fun eq_66 () Bool (= add_40 1))
(define-fun not__77 () Bool (not eq_66))
(assert not__77)
(define-fun eq_67 () Bool (= add_39 1))
(define-fun not__78 () Bool (not eq_67))
(assert not__78)
(define-fun eq_68 () Bool (= add_40 add_40))
(assert eq_68)
(define-fun eq_69 () Bool (= mul_51 mul_51))
(assert eq_69)
(define-fun eq_70 () Bool (= mul_52 mul_52))
(assert eq_70)
(define-fun eq_71 () Bool (= mul_51 1))
(define-fun not__79 () Bool (not eq_71))
(assert not__79)
(define-fun eq_72 () Bool (= mul_51 0))
(define-fun not__80 () Bool (not eq_72))
(assert not__80)
(define-fun lt_36 () Bool (< mul_51 0))
(define-fun not__81 () Bool (not lt_36))
(assert not__81)
(define-fun lt_37 () Bool (< 1 mul_52))
(assert lt_37)
(define-fun gt_17 () Bool (> mul_39 1))
(assert gt_17)
(define-fun gt_18 () Bool (> mul_40 1))
(assert gt_18)
(define-fun lt_38 () Bool (< mul_60 2147483647))
(assert lt_38)
(define-fun lt_39 () Bool (< add_40 0))
(define-fun not__82 () Bool (not lt_39))
(assert not__82)
(define-fun lt_40 () Bool (< add_39 0))
(define-fun not__83 () Bool (not lt_40))
(assert not__83)
(define-fun eq_73 () Bool (= add_39 add_39))
(assert eq_73)
(define-fun eq_74 () Bool (= add_39 -1))
(define-fun not__84 () Bool (not eq_74))
(assert not__84)
(define-fun eq_75 () Bool (= add_40 -1))
(define-fun not__85 () Bool (not eq_75))
(assert not__85)
(define-fun lt_41 () Bool (< add_39 2))
(define-fun not__86 () Bool (not lt_41))
(assert not__86)
(define-fun lt_42 () Bool (< add_40 2))
(define-fun not__87 () Bool (not lt_42))
(assert not__87)
(define-fun gt_19 () Bool (> add_40 1))
(assert gt_19)
(define-fun lt_43 () Bool (< add_40 mul_51))
(assert lt_43)
(define-fun eq_76 () Bool (= mul_52 0))
(define-fun not__88 () Bool (not eq_76))
(assert not__88)
(define-fun lt_44 () Bool (< mul_51 mul_52))
(assert lt_44)
(define-fun eq_77 () Bool (= mul_60 mul_60))
(assert eq_77)
(define-fun lt_45 () Bool (< add_39 4))
(define-fun not__89 () Bool (not lt_45))
(assert not__89)
(define-fun lt_46 () Bool (< add_40 4))
(define-fun not__90 () Bool (not lt_46))
(assert not__90)
(define-fun floordiv_20 () Int (div mul_60 input_size0))
(define-fun gt_20 () Bool (> floordiv_20 2147483647))
(define-fun not__91 () Bool (not gt_20))
(assert not__91)
(define-fun sub_36 () Int (- add_39 4))
(define-fun floordiv_21 () Int (div sub_36 1))
(define-fun add_45 () Int (+ floordiv_21 1))
(define-fun sub_37 () Int (- add_40 4))
(define-fun floordiv_22 () Int (div sub_37 1))
(define-fun add_46 () Int (+ floordiv_22 1))
(define-fun mul_61 () Int (* add_45 add_46))
(define-fun gt_21 () Bool (> mul_61 2147483647))
(define-fun not__92 () Bool (not gt_21))
(assert not__92)
(define-fun sub_38 () Int (- add_39 3))
(define-fun sub_39 () Int (- sub_38 1))
(define-fun floordiv_23 () Int (div sub_39 1))
(define-fun add_47 () Int (+ floordiv_23 1))
(define-fun sub_40 () Int (- add_40 3))
(define-fun sub_41 () Int (- sub_40 1))
(define-fun floordiv_24 () Int (div sub_41 1))
(define-fun add_48 () Int (+ floordiv_24 1))
(define-fun ge_13 () Bool (>= add_47 0))
(assert ge_13)
(define-fun ge_14 () Bool (>= add_48 0))
(assert ge_14)
(define-fun eq_78 () Bool (= add_48 0))
(define-fun not__93 () Bool (not eq_78))
(assert not__93)
(define-fun eq_79 () Bool (= add_47 0))
(define-fun not__94 () Bool (not eq_79))
(assert not__94)
(define-fun mul_62 () Int (* add_48 add_47))
(define-fun mul_63 () Int (* mul_62 input_size0))
(define-fun mul_64 () Int (* mul_62 sub))
(define-fun add_49 () Int (+ 1 mul_64))
(define-fun mul_65 () Int (* mul_62 0))
(define-fun add_50 () Int (+ add_49 mul_65))
(define-fun sub_42 () Int (- add_47 1))
(define-fun mul_66 () Int (* add_48 sub_42))
(define-fun add_51 () Int (+ add_50 mul_66))
(define-fun sub_43 () Int (- add_48 1))
(define-fun add_52 () Int (+ add_51 sub_43))
(define-fun mul_67 () Int (* 4 add_52))
(define-fun mul_68 () Int (* input_size0 add_47))
(define-fun mul_69 () Int (* mul_68 add_48))
(define-fun eq_80 () Bool (= mul_69 0))
(define-fun not__95 () Bool (not eq_80))
(assert not__95)
(define-fun eq_81 () Bool (= add_48 1))
(assert eq_81)
(define-fun eq_82 () Bool (= add_47 1))
(assert eq_82)
(define-fun eq_83 () Bool (= mul_62 1))
(assert eq_83)
(define-fun eq_84 () Bool (= mul_62 0))
(define-fun not__96 () Bool (not eq_84))
(assert not__96)
(define-fun lt_47 () Bool (< mul_62 0))
(define-fun not__97 () Bool (not lt_47))
(assert not__97)
(define-fun lt_48 () Bool (< 1 mul_62))
(define-fun not__98 () Bool (not lt_48))
(assert not__98)
(define-fun gt_22 () Bool (> add_48 1))
(define-fun not__99 () Bool (not gt_22))
(assert not__99)
(define-fun lt_49 () Bool (< add_48 1))
(define-fun not__100 () Bool (not lt_49))
(assert not__100)
(define-fun gt_23 () Bool (> add_47 1))
(define-fun not__101 () Bool (not gt_23))
(assert not__101)
(define-fun lt_50 () Bool (< mul_62 add_48))
(define-fun not__102 () Bool (not lt_50))
(assert not__102)
(define-fun eq_85 () Bool (= add_48 mul_62))
(assert eq_85)
(define-fun gt_24 () Bool (> mul_51 1))
(assert gt_24)
(define-fun gt_25 () Bool (> mul_52 1))
(assert gt_25)
(define-fun eq_86 () Bool (= add_47 add_47))
(assert eq_86)
(define-fun eq_87 () Bool (= add_48 add_48))
(assert eq_87)
(define-fun gt_26 () Bool (> add_48 add_47))
(define-fun not__103 () Bool (not gt_26))
(assert not__103)
(define-fun lt_51 () Bool (< add_48 mul_62))
(define-fun not__104 () Bool (not lt_51))
(assert not__104)
(define-fun gt_27 () Bool (> add_48 mul_62))
(define-fun not__105 () Bool (not gt_27))
(assert not__105)
(define-fun gt_28 () Bool (> mul_62 1))
(define-fun not__106 () Bool (not gt_28))
(assert not__106)
(define-fun lt_52 () Bool (< mul_62 1))
(define-fun not__107 () Bool (not lt_52))
(assert not__107)
(define-fun lt_53 () Bool (< mul_62 mul_62))
(define-fun not__108 () Bool (not lt_53))
(assert not__108)
(define-fun gt_29 () Bool (> mul_62 mul_62))
(define-fun not__109 () Bool (not gt_29))
(assert not__109)
(define-fun lt_54 () Bool (< input_size0 1))
(define-fun not__110 () Bool (not lt_54))
(assert not__110)
(define-fun gt_30 () Bool (> add_47 input_size0))
(define-fun not__111 () Bool (not gt_30))
(assert not__111)
(define-fun gt_31 () Bool (> add_48 input_size0))
(define-fun not__112 () Bool (not gt_31))
(assert not__112)
(define-fun lt_55 () Bool (< add_48 0))
(define-fun not__113 () Bool (not lt_55))
(assert not__113)
(define-fun lt_56 () Bool (< add_47 0))
(define-fun not__114 () Bool (not lt_56))
(assert not__114)
(define-fun eq_88 () Bool (= add_47 -1))
(define-fun not__115 () Bool (not eq_88))
(assert not__115)
(define-fun eq_89 () Bool (= add_48 -1))
(define-fun not__116 () Bool (not eq_89))
(assert not__116)
(define-fun eq_90 () Bool (= mul_69 mul_69))
(assert eq_90)
(define-fun eq_91 () Bool (= mul_12 0))
(define-fun not__117 () Bool (not eq_91))
(assert not__117)
(define-fun eq_92 () Bool (= mul_67 0))
(define-fun not__118 () Bool (not eq_92))
(assert not__118)
(define-fun output0_size0 () Int 128)
(define-fun output0_stride0 () Int 1)
(define-fun output0_storage_offset () Int 0)
(define-fun output1_size0 () Int 128)
(define-fun output1_stride0 () Int 1)
(define-fun output1_storage_offset () Int 0)
(define-fun output2_size0 () Int 256)
(define-fun output2_stride0 () Int 1)
(define-fun output2_storage_offset () Int 0)
(define-fun output3_size0 () Int 256)
(define-fun output3_stride0 () Int 1)
(define-fun output3_storage_offset () Int 0)
(define-fun output4_size0 () Int 512)
(define-fun output4_stride0 () Int 1)
(define-fun output4_storage_offset () Int 0)
(define-fun output5_size0 () Int 512)
(define-fun output5_stride0 () Int 1)
(define-fun output5_storage_offset () Int 0)
(define-fun output6_size0 () Int input_size0)
(define-fun output6_size1 () Int 1)
(define-fun output6_size2 () Int add_47)
(define-fun output6_size3 () Int add_48)
(define-fun output6_stride0 () Int mul_62)
(define-fun output6_stride1 () Int mul_62)
(define-fun output6_stride2 () Int add_48)
(define-fun output6_stride3 () Int 1)
(define-fun output6_storage_offset () Int 0)
(check-sat)
(get-model)
